(set-info :smt-lib-version 2.6)
(set-logic QF_S)
(set-info :source |
Generated by: Murphy Berzish, Mitja Kulczynski, Federico Mora, Florin Manea, Joel Day, Dirk Nowotka, Vijay Ganesh, Zhengyang Lu
Generated on: 2020-10-01
Description: Translated from a collection of real-world regex queries, AutomataArk, collected by Loris D’Antoni and Fang Wang: https://github.com/lorisdanto/automatark
Application: Evaluate solvers on real-world regex queries
Target solver: Z3str3RE, CVC4, OSTRICH, Z3seq, Z3str3, Z3-Trau
Publications: Berzish, M., Kulczynski, M., Mora, F., Manea, F., Day, J. D., Nowotka, D., & Ganesh, V. (2021, July). An SMT solver for regular expressions and linear arithmetic over string length. In CAV 2021.
|)
(set-info :license "https://creativecommons.org/licenses/by/4.0/")
(set-info :category "industrial")
(set-info :status sat)

(declare-const X String)
(assert (not (str.in_re X (re.++ (str.to_re "Ready") (re.+ (re.union (str.to_re " ") (str.to_re "\u{9}") (str.to_re "\u{a}") (str.to_re "\u{c}") (str.to_re "\u{d}"))) (str.to_re "Eye") (re.* re.allchar) (str.to_re "http://supremetoolbar\u{a}")))))
(assert (not (str.in_re X (re.++ ((_ re.loop 5 5) (re.union (re.range "A" "Z") (re.range "1" "9"))) (str.to_re "-") ((_ re.loop 5 5) (re.union (re.range "A" "Z") (re.range "1" "9"))) (str.to_re "-") ((_ re.loop 5 5) (re.union (re.range "A" "Z") (re.range "1" "9"))) (str.to_re "-") ((_ re.loop 5 5) (re.union (re.range "A" "Z") (re.range "1" "9"))) (str.to_re "-") ((_ re.loop 5 5) (re.union (re.range "A" "Z") (re.range "1" "9"))) (str.to_re "\u{a}")))))
(assert (str.in_re X (re.++ (re.union (re.++ (re.union (re.++ (re.opt (str.to_re "0")) (re.union (str.to_re "1") (str.to_re "3") (str.to_re "5") (str.to_re "7") (str.to_re "8"))) (str.to_re "10") (str.to_re "12")) (re.union (str.to_re "-") (str.to_re "/")) (re.union (re.range "1" "9") (re.++ (str.to_re "0") (re.range "1" "9")) (re.++ (re.union (str.to_re "1") (str.to_re "2")) (re.opt (re.range "0" "9"))) (re.++ (str.to_re "3") (re.opt (re.union (str.to_re "0") (str.to_re "1"))))) (re.union (str.to_re "-") (str.to_re "/")) (re.union (re.++ (str.to_re "19") (re.range "2" "9") ((_ re.loop 1 1) (re.range "0" "9"))) (re.++ (str.to_re "20") (re.union (str.to_re "0") (str.to_re "1")) ((_ re.loop 1 1) (re.range "0" "9"))) (re.++ (re.union (str.to_re "8") (str.to_re "9") (str.to_re "0") (str.to_re "1")) ((_ re.loop 1 1) (re.range "0" "9"))))) (re.++ (re.union (re.++ (re.opt (str.to_re "0")) (re.union (str.to_re "2") (str.to_re "4") (str.to_re "6") (str.to_re "9"))) (str.to_re "11")) (re.union (str.to_re "-") (str.to_re "/")) (re.union (re.range "1" "9") (re.++ (str.to_re "0") (re.range "1" "9")) (re.++ (re.union (str.to_re "1") (str.to_re "2")) (re.opt (re.range "0" "9"))) (re.++ (str.to_re "3") (re.opt (str.to_re "0")))) (re.union (str.to_re "-") (str.to_re "/")) (re.union (re.++ (str.to_re "19") (re.range "2" "9") ((_ re.loop 1 1) (re.range "0" "9"))) (re.++ (str.to_re "20") (re.union (str.to_re "0") (str.to_re "1")) ((_ re.loop 1 1) (re.range "0" "9"))) (re.++ (re.union (str.to_re "8") (str.to_re "9") (str.to_re "0") (str.to_re "1")) ((_ re.loop 1 1) (re.range "0" "9")))))) (str.to_re "\u{a}"))))
(assert (not (str.in_re X (re.++ (re.union (re.opt (re.union (str.to_re "0") (str.to_re "(0)"))) (re.++ (re.opt (re.union (str.to_re "00") (str.to_re "(00)"))) (re.union (re.opt (re.union (str.to_re " ") (str.to_re "\u{9}") (str.to_re "\u{a}") (str.to_re "\u{c}") (str.to_re "\u{d}"))) (re.opt (str.to_re "-"))) (re.union (str.to_re "27") (str.to_re "(27)"))) (str.to_re "+27") (str.to_re "(+27)") (re.++ (str.to_re "(00") (re.union (re.opt (re.union (str.to_re " ") (str.to_re "\u{9}") (str.to_re "\u{a}") (str.to_re "\u{c}") (str.to_re "\u{d}"))) (re.opt (str.to_re "-"))) (str.to_re "27)"))) (re.opt (re.union (str.to_re " ") (str.to_re "-"))) (re.opt (re.union (str.to_re " ") (str.to_re "-"))) (re.opt (str.to_re "(")) (re.union (re.++ (str.to_re "1") (re.range "0" "9")) (re.++ (str.to_re "2") (re.union (re.range "1" "4") (str.to_re ",") (re.range "7" "9"))) (re.++ (str.to_re "3") (re.union (re.range "1" "6") (str.to_re ",") (str.to_re "9"))) (re.++ (str.to_re "4") (re.range "0" "9")) (re.++ (str.to_re "5") (re.union (str.to_re "1") (str.to_re ",") (str.to_re "3") (re.range "6" "9"))) (re.++ (str.to_re "7") (re.union (re.range "1" "4") (str.to_re ",") (str.to_re "6") (str.to_re "8") (str.to_re "9"))) (re.++ (str.to_re "8") (re.range "0" "9"))) (re.opt (str.to_re ")")) (re.union (re.opt (re.union (str.to_re " ") (str.to_re "\u{9}") (str.to_re "\u{a}") (str.to_re "\u{c}") (str.to_re "\u{d}"))) (re.opt (str.to_re "-"))) (re.union (re.++ ((_ re.loop 3 3) (re.range "0" "9")) (re.union (re.opt (re.union (str.to_re " ") (str.to_re "\u{9}") (str.to_re "\u{a}") (str.to_re "\u{c}") (str.to_re "\u{d}"))) (re.opt (str.to_re "-"))) ((_ re.loop 4 4) (re.range "0" "9"))) (re.++ ((_ re.loop 4 4) (re.range "0" "9")) (re.union (re.opt (re.union (str.to_re " ") (str.to_re "\u{9}") (str.to_re "\u{a}") (str.to_re "\u{c}") (str.to_re "\u{d}"))) (re.opt (str.to_re "-"))) ((_ re.loop 3 3) (re.range "0" "9"))) (re.++ (re.range "0" "2") (re.union (re.opt (re.union (str.to_re " ") (str.to_re "\u{9}") (str.to_re "\u{a}") (str.to_re "\u{c}") (str.to_re "\u{d}"))) (re.opt (str.to_re "-"))) ((_ re.loop 3 3) (re.range "0" "9")) (re.union (re.opt (re.union (str.to_re " ") (str.to_re "\u{9}") (str.to_re "\u{a}") (str.to_re "\u{c}") (str.to_re "\u{d}"))) (re.opt (str.to_re "-"))) ((_ re.loop 3 3) (re.range "0" "9")))) (str.to_re "\u{a}") (re.opt (str.to_re "(")) (re.opt (str.to_re "0")) (re.opt (str.to_re ")"))))))
(assert (not (str.in_re X (re.++ (str.to_re "welcome") (re.+ (re.union (str.to_re " ") (str.to_re "\u{9}") (str.to_re "\u{a}") (str.to_re "\u{c}") (str.to_re "\u{d}"))) (str.to_re "Host:") (re.+ (re.union (str.to_re " ") (str.to_re "\u{9}") (str.to_re "\u{a}") (str.to_re "\u{c}") (str.to_re "\u{d}"))) (str.to_re "ThistoIpHost:badurl.grandstreetinteractive.com\u{a}")))))
(check-sat)

(exit)
